N = 35;
MinK = 5;
Capacity = 100;

X = array1d(0..35, [15, 1, 87, 69, 93, 33, 71, 29, 93, 55, 23, 19, 57, 5, 65, 69, 3, 19, 21, 67, 41, 19, 15, 79, 19, 27, 29, 25, 59, 27, 21, 61, 15, 31, 71, 91]);
Y = array1d(0..35, [19, 49, 25, 65, 91, 31, 61, 9, 7, 47, 13, 47, 63, 95, 43, 1, 25, 91, 81, 91, 23, 75, 79, 47, 65, 49, 17, 65, 51, 95, 91, 83, 83, 87, 41, 21]);

Demands = [1, 14, 15, 11, 18, 2, 22, 7, 18, 23, 12, 21, 2, 14, 9, 10, 4, 19, 2, 20, 15, 11, 6, 13, 19, 13, 8, 15, 18, 11, 21, 12, 2, 23, 11];
